unknown
(model
; cardinality of BoundSet is 1
(declare-sort BoundSet 0)
; rep: @uc_BoundSet_0
; cardinality of UnboundSet is 1
(declare-sort UnboundSet 0)
(declare-fun groundTerm_2 () UnboundSet)
(define-fun IsAardvarkSteak ((BOUND_VARIABLE_420 BoundSet)) Bool true)
(define-fun IsSteak ((BOUND_VARIABLE_420 BoundSet)) Bool true)
(define-fun IsInWorld ((BOUND_VARIABLE_420 BoundSet)) Bool true)
(define-fun IsRarest ((BOUND_VARIABLE_420 BoundSet)) Bool true)
(define-fun Dislikes ((BOUND_VARIABLE_432 BoundSet) (BOUND_VARIABLE_433 BoundSet)) Bool false)
)
sat
(model
; cardinality of BoundSet is 1
(declare-sort BoundSet 0)
; rep: @uc_BoundSet_0
; cardinality of UnboundSet is 1
(declare-sort UnboundSet 0)
(declare-fun groundTerm_4 () UnboundSet)
(define-fun IsAardvarkSteak ((BOUND_VARIABLE_452 BoundSet)) Bool true)
(define-fun IsSteak ((BOUND_VARIABLE_452 BoundSet)) Bool true)
(define-fun IsInWorld ((BOUND_VARIABLE_452 BoundSet)) Bool true)
(define-fun IsRarest ((BOUND_VARIABLE_452 BoundSet)) Bool true)
(define-fun Dislikes ((BOUND_VARIABLE_460 BoundSet) (BOUND_VARIABLE_461 BoundSet)) Bool false)
)
